(set-info :smt-lib-version 2.6)
(set-info :category "crafted")
(set-logic QF_FFA)
(define-sort FF0 () (_ FiniteField 52435875175126190479447740508185965837690552500527637822603658699938581184513))
(declare-fun a () Bool)
(declare-fun b () Bool)
(declare-fun return_n0 () FF0)
(declare-fun mul_n131 () FF0)
(declare-fun mul_n134 () FF0)
(declare-fun mul_n76 () FF0)
(declare-fun mul_n15 () FF0)
(declare-fun mul_n21 () FF0)
(declare-fun is_zero_n33 () FF0)
(declare-fun mul_n100 () FF0)
(declare-fun mul_n45 () FF0)
(declare-fun mul_n115 () FF0)
(declare-fun mul_n57 () FF0)
(declare-fun mul_n130 () FF0)
(declare-fun mul_n133 () FF0)
(declare-fun mul_n136 () FF0)
(declare-fun mul_n75 () FF0)
(declare-fun mul_n78 () FF0)
(declare-fun is_zero_n105 () FF0)
(declare-fun is_zero_n102 () FF0)
(declare-fun mul_n108 () FF0)
(declare-fun mul_n44 () FF0)
(declare-fun mul_n111 () FF0)
(declare-fun mul_n114 () FF0)
(declare-fun mul_n117 () FF0)
(declare-fun b_n1 () FF0)
(declare-fun mul_n129 () FF0)
(declare-fun mul_n132 () FF0)
(declare-fun mul_n71 () FF0)
(declare-fun mul_n135 () FF0)
(declare-fun mul_n80 () FF0)
(declare-fun mul_n16 () FF0)
(declare-fun mul_n28 () FF0)
(declare-fun is_zero_n107 () FF0)
(declare-fun mul_n113 () FF0)
(declare-fun mul_n116 () FF0)
(declare-fun is_zero_n128 () FF0)
(declare-fun is_zero_inv_n137 () FF0)
(declare-fun mul_n25 () FF0)
(declare-fun is_zero_n68 () FF0)
(declare-fun mul_n23 () FF0)
(declare-fun mul_n29 () FF0)
(declare-fun mul_n77 () FF0)
(declare-fun mul_n58 () FF0)
(declare-fun mul_n73 () FF0)
(declare-fun mul_n34 () FF0)
(declare-fun mul_n54 () FF0)
(declare-fun mul_n53 () FF0)
(declare-fun mul_n61 () FF0)
(declare-fun is_zero_n52 () FF0)
(declare-fun is_zero_n14 () FF0)
(declare-fun mul_n30 () FF0)
(declare-fun mul_n8 () FF0)
(declare-fun mul_n19 () FF0)
(declare-fun is_zero_n126 () FF0)
(declare-fun mul_n97 () FF0)
(declare-fun mul_n124 () FF0)
(declare-fun is_zero_inv_n127 () FF0)
(declare-fun mul_n89 () FF0)
(declare-fun mul_n60 () FF0)
(declare-fun mul_n20 () FF0)
(declare-fun mul_n87 () FF0)
(declare-fun is_zero_inv_n125 () FF0)
(declare-fun mul_n123 () FF0)
(declare-fun mul_n110 () FF0)
(declare-fun is_zero_n122 () FF0)
(declare-fun mul_n63 () FF0)
(declare-fun mul_n88 () FF0)
(declare-fun mul_n39 () FF0)
(declare-fun mul_n119 () FF0)
(declare-fun is_zero_inv_n121 () FF0)
(declare-fun mul_n120 () FF0)
(declare-fun mul_n42 () FF0)
(declare-fun mul_n70 () FF0)
(declare-fun mul_n69 () FF0)
(declare-fun mul_n27 () FF0)
(declare-fun is_zero_n10 () FF0)
(declare-fun mul_n118 () FF0)
(declare-fun is_zero_n96 () FF0)
(declare-fun mul_n79 () FF0)
(declare-fun mul_n86 () FF0)
(declare-fun mul_n84 () FF0)
(declare-fun mul_n94 () FF0)
(declare-fun mul_n43 () FF0)
(declare-fun mul_n24 () FF0)
(declare-fun mul_n112 () FF0)
(declare-fun mul_n109 () FF0)
(declare-fun mul_n7 () FF0)
(declare-fun is_zero_n5 () FF0)
(declare-fun mul_n59 () FF0)
(declare-fun mul_n46 () FF0)
(declare-fun mul_n49 () FF0)
(declare-fun is_zero_inv_n106 () FF0)
(declare-fun mul_n92 () FF0)
(declare-fun mul_n98 () FF0)
(declare-fun is_zero_n65 () FF0)
(declare-fun mul_n103 () FF0)
(declare-fun mul_n99 () FF0)
(declare-fun mul_n35 () FF0)
(declare-fun is_zero_inv_n104 () FF0)
(declare-fun mul_n38 () FF0)
(declare-fun mul_n85 () FF0)
(declare-fun is_zero_inv_n101 () FF0)
(declare-fun mul_n26 () FF0)
(declare-fun is_zero_inv_n95 () FF0)
(declare-fun mul_n93 () FF0)
(declare-fun mul_n72 () FF0)
(declare-fun is_zero_n82 () FF0)
(declare-fun is_zero_n91 () FF0)
(declare-fun mul_n56 () FF0)
(declare-fun is_zero_inv_n90 () FF0)
(declare-fun mul_n36 () FF0)
(declare-fun is_zero_n48 () FF0)
(declare-fun mul_n83 () FF0)
(declare-fun is_zero_inv_n81 () FF0)
(declare-fun mul_n40 () FF0)
(declare-fun mul_n74 () FF0)
(declare-fun mul_n31 () FF0)
(declare-fun mul_n12 () FF0)
(declare-fun is_zero_n18 () FF0)
(declare-fun mul_n66 () FF0)
(declare-fun mul_n37 () FF0)
(declare-fun is_zero_inv_n67 () FF0)
(declare-fun mul_n55 () FF0)
(declare-fun is_zero_inv_n64 () FF0)
(declare-fun mul_n62 () FF0)
(declare-fun mul_n11 () FF0)
(declare-fun mul_n50 () FF0)
(declare-fun is_zero_inv_n51 () FF0)
(declare-fun is_zero_inv_n47 () FF0)
(declare-fun mul_n41 () FF0)
(declare-fun mul_n22 () FF0)
(declare-fun is_zero_inv_n32 () FF0)
(declare-fun a_n2 () FF0)
(declare-fun is_zero_inv_n17 () FF0)
(declare-fun is_zero_inv_n13 () FF0)
(declare-fun is_zero_inv_n9 () FF0)
(declare-fun is_zero_inv_n4 () FF0)
(assert 
  (let ((let0 a))
  (let ((let1 b))
  (let ((let2 (ite let0 let1 let1)))
  (let ((let3 (not let2)))
  (let ((let4 (and let0 let3 let2 let0 let3 let1 let0)))
  (let ((let5 (ite let4 let4 let4)))
  (let ((let6 (= let3 let5)))
  (let ((let7 (=> let1 let4)))
  (let ((let8 (and let5 let5 let0 let5 let7 let7 let2 let5 let2 let7)))
  (let ((let9 (ite let6 let1 let8)))
  (let ((let10 (=> let9 let4)))
  (let ((let11 (not let7)))
  (let ((let12 (or let9 let8 let3 let1 let3 let11 let6 let2 let2 let9 let3)))
  (let ((let13 (or let12 let6)))
  (let ((let14 (not let8)))
  (let ((let15 (ite let14 let14 let13)))
  (let ((let16 (not let15)))
  (let ((let17 (or let12 let16 let16 let10 let15 let11 let0 let11 let15 let1 let10 let6)))
  (let ((let18 (and let9 let17)))
  (let ((let19 (=> let8 let18)))
  (let ((let20 (=> let10 let19)))
  (let ((let21 (not let20)))
  (let ((let22 (= let17 let17)))
  (let ((let23 (=> let8 let22)))
  (let ((let24 (and let22 let23)))
  (let ((let25 (or let19 let6)))
  (let ((let26 (=> let8 let13)))
  (let ((let27 (ite let22 let22 let14)))
  (let ((let28 (not let27)))
  (let ((let29 (ite let28 let28 let2)))
  (let ((let30 (= let23 let25)))
  (let ((let31 (= let11 let12)))
  (let ((let32 (ite let16 let31 let19)))
  (let ((let33 (and let32 let28 let30 let29 let26 let13)))
  (let ((let34 (or let22 let33)))
  (let ((let35 (ite let34 let24 let25)))
  (let ((let36 (=> let12 let13)))
  (let ((let37 (=> let26 let36)))
  (let ((let38 (ite let37 let35 let24)))
  (let ((let39 (or let10 let29)))
  (let ((let40 (and let39 let26)))
  (let ((let41 (or let40 let7 let38)))
  (let ((let42 (ite let13 let27 let24)))
  (let ((let43 (=> let42 let40)))
  (let ((let44 (or let43 let36)))
  (let ((let45 (ite let25 let26 let39)))
  (let ((let46 (and let45 let44 let30 let28 let29 let44)))
  (let ((let47 (and let16 let28)))
  (let ((let48 (and let47 let19)))
  (let ((let49 (or let15 let48 let11 let46 let37 let41)))
  (let ((let50 (=> let41 let24)))
  (let ((let51 (= let23 let50)))
  (let ((let52 (= let51 let49)))
  (let ((let53 (not let39)))
  (let ((let54 (not let53)))
  (let ((let55 (=> let51 let54)))
  (let ((let56 (=> let36 let44)))
  (let ((let57 (=> let56 let48)))
  (let ((let58 (not let57)))
  (let ((let59 (=> let58 let35)))
  (let ((let60 (=> let9 let38)))
  (let ((let61 (=> let29 let60)))
  (let ((let62 (or let55 let61 let59)))
  (let ((let63 (or let62 let55 let52 let21)))
  (let ((let64 (not let29)))
  (let ((let65 (not let64)))
  (let ((let66 (and let47 let43)))
  (let ((let67 (or let18 let15 let14 let37 let66 let10 let12 let66 let37 let32 let17 let14 let66 let42 let40 let66 let27 let42 let31)))
  (let ((let68 (= let27 let67)))
  (let ((let69 (= let68 let65)))
  (let ((let70 (= let43 let44)))
  (let ((let71 (= let70 let70)))
  (let ((let72 (or let71 let57)))
  (let ((let73 (and let71 let32 let18)))
  (let ((let74 (ite let58 let35 let73)))
  (let ((let75 (= let67 let30)))
  (let ((let76 (ite let43 let75 let33)))
  (let ((let77 (=> let40 let76)))
  (let ((let78 (= let76 let76)))
  (let ((let79 (and let78 let77 let74 let72 let50 let69)))
  (let ((let80 (or let5 let44 let34)))
  (let ((let81 (and let80 let46)))
  (let ((let82 (ite let81 let68 let80)))
  (let ((let83 (=> let81 let53)))
  (let ((let84 (and let83 let46)))
  (let ((let85 (ite let36 let39 let60)))
  (let ((let86 (not let12)))
  (let ((let87 (and let86 let74 let7 let65 let72 let85 let23 let75 let84 let81 let23 let73 let55 let73 let25 let82)))
  (let ((let88 (and let87 let79)))
  (let ((let89 (or let61 let71 let33)))
  (let ((let90 (not let83)))
  (let ((let91 (and let90 let76 let64 let89 let73)))
  (let ((let92 (=> let67 let91)))
  (let ((let93 (ite let26 let92 let88)))
  (let ((let94 (= let47 let35)))
  (let ((let95 (=> let60 let45)))
  (let ((let96 (and let53 let65 let38 let81)))
  (let ((let97 (ite let96 let30 let95)))
  (let ((let98 (or let96 let97 let51 let94 let93 let63)))
  (let ((let99 (and let59 let47 let45 let64 let76 let80)))
  (let ((let100 (= let33 let99)))
  (let ((let101 (or let6 let100 let49)))
  (let ((let102 (=> let101 let92)))
  (let ((let103 (=> let82 let86)))
  (let ((let104 (=> let21 let103)))
  (let ((let105 (not let89)))
  (let ((let106 (=> let42 let105)))
  (let ((let107 (ite let84 let82 let74)))
  (let ((let108 (not let77)))
  (let ((let109 (=> let108 let58)))
  (let ((let110 (and let91 let57)))
  (let ((let111 (or let68 let78 let69)))
  (let ((let112 (ite let41 let41 let111)))
  (let ((let113 (not let112)))
  (let ((let114 (or let112 let113 let18 let111 let62 let99 let54 let84 let67 let86)))
  (let ((let115 (and let114 let101 let60)))
  (let ((let116 (not let18)))
  (let ((let117 (and let85 let95 let64 let75 let83 let85 let19)))
  (let ((let118 (or let117 let116 let92 let115)))
  (let ((let119 (ite let31 let49 let65)))
  (let ((let120 (= let119 let78)))
  (let ((let121 (ite let119 let58 let20)))
  (let ((let122 (not let100)))
  (let ((let123 (=> let61 let51)))
  (let ((let124 (ite let34 let72 let95)))
  (let ((let125 (= let70 let96)))
  (let ((let126 (= let56 let43)))
  (let ((let127 (not let126)))
  (let ((let128 (ite let57 let75 let16)))
  (let ((let129 (or let128 let127 let125 let124 let123 let122 let121 let120 let118 let110 let109 let107 let106 let104 let102 let98)))
  (let ((let130 return_n0))
  (let ((let131 (as ff1 FF0)))
  (let ((let132 (= let131 let130)))
  (let ((let133 (= let132 let129)))
  (let ((let134 (as ff0 FF0)))
  (let ((let135 (= let134 let130)))
  (let ((let136 (or let132 let135)))
  (let ((let137 (and let136 let133)))
  (let ((let138 (as ff13 FF0)))
  (let ((let139 mul_n131))
  (let ((let140 mul_n134))
  (let ((let141 mul_n76))
  (let ((let142 mul_n15))
  (let ((let143 (as ff52435875175126190479447740508185965837690552500527637822603658699938581184512 FF0)))
  (let ((let144 mul_n21))
  (let ((let145 (ff.mul let144 let143)))
  (let ((let146 (as ff3 FF0)))
  (let ((let147 is_zero_n33))
  (let ((let148 (ff.mul let147 let146)))
  (let ((let149 mul_n100))
  (let ((let150 (ff.mul let149 let143)))
  (let ((let151 mul_n45))
  (let ((let152 (ff.mul let151 let143)))
  (let ((let153 mul_n115))
  (let ((let154 mul_n57))
  (let ((let155 (ff.mul let154 let143)))
  (let ((let156 mul_n130))
  (let ((let157 mul_n133))
  (let ((let158 mul_n136))
  (let ((let159 mul_n75))
  (let ((let160 (as ff2 FF0)))
  (let ((let161 mul_n78))
  (let ((let162 (ff.mul let161 let160)))
  (let ((let163 is_zero_n105))
  (let ((let164 (ff.mul let163 let143)))
  (let ((let165 is_zero_n102))
  (let ((let166 (ff.mul let165 let143)))
  (let ((let167 mul_n108))
  (let ((let168 (ff.mul let167 let143)))
  (let ((let169 (as ff52435875175126190479447740508185965837690552500527637822603658699938581184511 FF0)))
  (let ((let170 mul_n44))
  (let ((let171 (ff.mul let170 let169)))
  (let ((let172 mul_n111))
  (let ((let173 (ff.mul let172 let143)))
  (let ((let174 mul_n114))
  (let ((let175 (ff.mul let174 let143)))
  (let ((let176 mul_n117))
  (let ((let177 b_n1))
  (let ((let178 (ff.mul let177 let143)))
  (let ((let179 mul_n129))
  (let ((let180 (ff.mul let179 let143)))
  (let ((let181 mul_n132))
  (let ((let182 (ff.mul let181 let143)))
  (let ((let183 mul_n71))
  (let ((let184 (ff.mul let183 let143)))
  (let ((let185 mul_n135))
  (let ((let186 (ff.mul let185 let143)))
  (let ((let187 mul_n80))
  (let ((let188 (ff.mul let187 let143)))
  (let ((let189 mul_n16))
  (let ((let190 (ff.mul let189 let143)))
  (let ((let191 mul_n28))
  (let ((let192 (ff.mul let191 let143)))
  (let ((let193 is_zero_n107))
  (let ((let194 mul_n113))
  (let ((let195 (ff.mul let194 let143)))
  (let ((let196 mul_n116))
  (let ((let197 (ff.mul let196 let143)))
  (let ((let198 is_zero_n128))
  (let ((let199 (ff.mul let198 let143)))
  (let ((let200 (ff.add let199 let197 let195 let193 let192 let190 let188 let186 let184 let182 let180 let178 let176 let175 let173 let171 let168 let166 let164 let162 let159 let158 let157 let156 let155 let153 let152 let150 let148 let145 let142 let141 let140 let139 let138)))
  (let ((let201 (ff.mul let130 let143)))
  (let ((let202 (ff.add let201 let131)))
  (let ((let203 (ff.mul let202 let200)))
  (let ((let204 (= let203 let134)))
  (let ((let205 is_zero_inv_n137))
  (let ((let206 (ff.mul let205 let200)))
  (let ((let207 (= let206 let130)))
  (let ((let208 (ff.mul let142 let143)))
  (let ((let209 mul_n25))
  (let ((let210 (ff.mul let209 let143)))
  (let ((let211 is_zero_n68))
  (let ((let212 mul_n23))
  (let ((let213 (ff.mul let212 let143)))
  (let ((let214 mul_n29))
  (let ((let215 (ff.mul let214 let143)))
  (let ((let216 mul_n77))
  (let ((let217 (ff.add let189 let216 let215 let213 let211 let210 let208 let131)))
  (let ((let218 mul_n58))
  (let ((let219 (ff.mul let218 let143)))
  (let ((let220 (ff.add let219 let131)))
  (let ((let221 (ff.mul let220 let217)))
  (let ((let222 (= let221 let158)))
  (let ((let223 (ff.mul let170 let143)))
  (let ((let224 (ff.add let223 let131)))
  (let ((let225 (ff.mul let154 let169)))
  (let ((let226 (ff.add let225 let160)))
  (let ((let227 (ff.mul let226 let224)))
  (let ((let228 (= let227 let185)))
  (let ((let229 (ff.mul let183 let160)))
  (let ((let230 (ff.mul let151 let160)))
  (let ((let231 (ff.mul let170 let160)))
  (let ((let232 (ff.add let231 let230 let229 let169)))
  (let ((let233 (ff.mul let232 let165)))
  (let ((let234 (= let233 let140)))
  (let ((let235 mul_n73))
  (let ((let236 (ff.mul let235 let143)))
  (let ((let237 (ff.add let149 let236)))
  (let ((let238 mul_n34))
  (let ((let239 (ff.mul let238 let143)))
  (let ((let240 (ff.add let239 let131)))
  (let ((let241 (ff.mul let240 let237)))
  (let ((let242 (= let241 let157)))
  (let ((let243 mul_n54))
  (let ((let244 (ff.mul let243 let143)))
  (let ((let245 mul_n53))
  (let ((let246 (ff.mul let245 let143)))
  (let ((let247 (ff.add let246 let244 let213 let160)))
  (let ((let248 mul_n61))
  (let ((let249 (ff.mul let248 let143)))
  (let ((let250 (ff.add let249 let131)))
  (let ((let251 (ff.mul let250 let247)))
  (let ((let252 (= let251 let181)))
  (let ((let253 (ff.add let144 let218 let143)))
  (let ((let254 (ff.add let191 let179 let177)))
  (let ((let255 (ff.mul let254 let253)))
  (let ((let256 (= let255 let139)))
  (let ((let257 (ff.mul let161 let169)))
  (let ((let258 (ff.mul let147 let169)))
  (let ((let259 (ff.add let187 let258 let257 let131)))
  (let ((let260 (ff.mul let177 let160)))
  (let ((let261 (ff.mul let179 let160)))
  (let ((let262 (ff.mul let191 let160)))
  (let ((let263 (ff.add let262 let261 let260)))
  (let ((let264 (ff.mul let263 let259)))
  (let ((let265 (= let264 let156)))
  (let ((let266 is_zero_n52))
  (let ((let267 (ff.mul let266 let143)))
  (let ((let268 (ff.add let267 let192 let178 let131)))
  (let ((let269 is_zero_n14))
  (let ((let270 mul_n30))
  (let ((let271 mul_n8))
  (let ((let272 (ff.mul let271 let143)))
  (let ((let273 (ff.add let272 let270 let269)))
  (let ((let274 (ff.mul let273 let268)))
  (let ((let275 (= let274 let179)))
  (let ((let276 mul_n19))
  (let ((let277 (ff.mul let276 let143)))
  (let ((let278 is_zero_n126))
  (let ((let279 mul_n97))
  (let ((let280 (ff.mul let279 let143)))
  (let ((let281 mul_n124))
  (let ((let282 (ff.add let281 let280 let278 let277 let160)))
  (let ((let283 (ff.mul let198 let282)))
  (let ((let284 (= let283 let134)))
  (let ((let285 (ff.add let199 let131)))
  (let ((let286 is_zero_inv_n127))
  (let ((let287 (ff.mul let286 let282)))
  (let ((let288 (= let287 let285)))
  (let ((let289 mul_n89))
  (let ((let290 (ff.mul let289 let169)))
  (let ((let291 mul_n60))
  (let ((let292 (ff.mul let291 let160)))
  (let ((let293 mul_n20))
  (let ((let294 mul_n87))
  (let ((let295 (ff.mul let211 let143)))
  (let ((let296 (ff.mul let216 let143)))
  (let ((let297 (ff.add let209 let296 let214 let212 let149 let177 let295 let294 let293 let292 let290 let191)))
  (let ((let298 (ff.mul let278 let297)))
  (let ((let299 (= let298 let134)))
  (let ((let300 (ff.mul let278 let143)))
  (let ((let301 (ff.add let300 let131)))
  (let ((let302 is_zero_inv_n125))
  (let ((let303 (ff.mul let302 let297)))
  (let ((let304 (= let303 let301)))
  (let ((let305 (ff.mul let291 let143)))
  (let ((let306 (ff.add let305 let131)))
  (let ((let307 mul_n123))
  (let ((let308 (ff.mul let307 let306)))
  (let ((let309 (= let308 let281)))
  (let ((let310 mul_n110))
  (let ((let311 (ff.mul let310 let143)))
  (let ((let312 (ff.add let311 let131)))
  (let ((let313 is_zero_n122))
  (let ((let314 (ff.mul let313 let143)))
  (let ((let315 (ff.add let314 let131)))
  (let ((let316 (ff.mul let315 let312)))
  (let ((let317 (= let316 let307)))
  (let ((let318 (as ff5 FF0)))
  (let ((let319 mul_n63))
  (let ((let320 (ff.mul let319 let143)))
  (let ((let321 mul_n88))
  (let ((let322 mul_n39))
  (let ((let323 (ff.mul let322 let143)))
  (let ((let324 mul_n119))
  (let ((let325 (ff.mul let324 let143)))
  (let ((let326 (ff.add let325 let323 let295 let269 let193 let321 let320 let276 let318)))
  (let ((let327 (ff.mul let313 let326)))
  (let ((let328 (= let327 let134)))
  (let ((let329 is_zero_inv_n121))
  (let ((let330 (ff.mul let329 let326)))
  (let ((let331 (= let330 let315)))
  (let ((let332 mul_n120))
  (let ((let333 mul_n42))
  (let ((let334 (ff.mul let333 let143)))
  (let ((let335 (ff.add let334 let324)))
  (let ((let336 (ff.add let334 let131)))
  (let ((let337 (ff.mul let336 let335)))
  (let ((let338 (= let337 let332)))
  (let ((let339 mul_n70))
  (let ((let340 (ff.mul let339 let143)))
  (let ((let341 mul_n69))
  (let ((let342 mul_n27))
  (let ((let343 (ff.mul let342 let143)))
  (let ((let344 is_zero_n10))
  (let ((let345 (ff.add let344 let211 let177 let343 let341 let191 let340 let143)))
  (let ((let346 mul_n118))
  (let ((let347 (ff.mul let346 let345)))
  (let ((let348 (= let347 let324)))
  (let ((let349 (ff.mul let147 let160)))
  (let ((let350 (ff.add let188 let349 let162)))
  (let ((let351 (ff.mul let344 let143)))
  (let ((let352 (ff.mul let341 let143)))
  (let ((let353 (ff.add let352 let351 let295 let342 let160)))
  (let ((let354 (ff.mul let353 let350)))
  (let ((let355 (= let354 let346)))
  (let ((let356 is_zero_n96))
  (let ((let357 (ff.mul let356 let220)))
  (let ((let358 (= let357 let176)))
  (let ((let359 mul_n79))
  (let ((let360 (ff.mul let359 let220)))
  (let ((let361 (= let360 let196)))
  (let ((let362 (ff.mul let159 let143)))
  (let ((let363 mul_n86))
  (let ((let364 (ff.mul let141 let143)))
  (let ((let365 mul_n84))
  (let ((let366 (ff.mul let365 let143)))
  (let ((let367 (ff.add let366 let364 let363 let362 let131)))
  (let ((let368 (ff.mul let321 let367)))
  (let ((let369 (= let368 let153)))
  (let ((let370 mul_n94))
  (let ((let371 (ff.mul let370 let143)))
  (let ((let372 (ff.add let371 let131)))
  (let ((let373 mul_n43))
  (let ((let374 mul_n24))
  (let ((let375 (ff.add let374 let373)))
  (let ((let376 (ff.mul let375 let372)))
  (let ((let377 (= let376 let174)))
  (let ((let378 mul_n112))
  (let ((let379 (ff.mul let144 let378)))
  (let ((let380 (= let379 let194)))
  (let ((let381 (ff.mul let269 let143)))
  (let ((let382 (ff.add let381 let131)))
  (let ((let383 (ff.add let366 let363 let131)))
  (let ((let384 (ff.mul let383 let382)))
  (let ((let385 (= let384 let378)))
  (let ((let386 (ff.mul let312 let279)))
  (let ((let387 (= let386 let172)))
  (let ((let388 mul_n109))
  (let ((let389 (ff.mul let388 let266)))
  (let ((let390 (= let389 let310)))
  (let ((let391 (ff.add let168 let147 let193)))
  (let ((let392 mul_n7))
  (let ((let393 (ff.mul let392 let143)))
  (let ((let394 is_zero_n5))
  (let ((let395 (ff.add let394 let393 let178 let131)))
  (let ((let396 (ff.mul let395 let391)))
  (let ((let397 (= let396 let388)))
  (let ((let398 (ff.mul let349 let193)))
  (let ((let399 (= let398 let167)))
  (let ((let400 (ff.mul let161 let143)))
  (let ((let401 (ff.mul let147 let143)))
  (let ((let402 mul_n59))
  (let ((let403 mul_n46))
  (let ((let404 (ff.mul let403 let143)))
  (let ((let405 mul_n49))
  (let ((let406 (ff.mul let405 let143)))
  (let ((let407 (ff.add let322 let365 let177 let406 let404 let402 let401 let400 let191 let160)))
  (let ((let408 (ff.mul let193 let407)))
  (let ((let409 (= let408 let134)))
  (let ((let410 (ff.mul let193 let143)))
  (let ((let411 (ff.add let410 let131)))
  (let ((let412 is_zero_inv_n106))
  (let ((let413 (ff.mul let412 let407)))
  (let ((let414 (= let413 let411)))
  (let ((let415 mul_n92))
  (let ((let416 mul_n98))
  (let ((let417 is_zero_n65))
  (let ((let418 (ff.mul let417 let143)))
  (let ((let419 mul_n103))
  (let ((let420 mul_n99))
  (let ((let421 mul_n35))
  (let ((let422 (ff.mul let421 let143)))
  (let ((let423 (ff.add let422 let420 let419 let150 let212 let406 let418 let245 let416 let415 let209 let165 let243 let131)))
  (let ((let424 (ff.mul let163 let423)))
  (let ((let425 (= let424 let134)))
  (let ((let426 (ff.add let164 let131)))
  (let ((let427 is_zero_inv_n104))
  (let ((let428 (ff.mul let427 let423)))
  (let ((let429 (= let428 let426)))
  (let ((let430 (ff.add let214 let212 let149 let209 let169)))
  (let ((let431 (ff.mul let165 let430)))
  (let ((let432 (= let431 let419)))
  (let ((let433 (as ff4 FF0)))
  (let ((let434 mul_n38))
  (let ((let435 (ff.mul let434 let143)))
  (let ((let436 mul_n85))
  (let ((let437 (ff.mul let436 let143)))
  (let ((let438 (ff.mul let374 let143)))
  (let ((let439 (ff.add let438 let437 let323 let192 let178 let435 let433)))
  (let ((let440 (ff.mul let165 let439)))
  (let ((let441 (= let440 let134)))
  (let ((let442 (ff.add let166 let131)))
  (let ((let443 is_zero_inv_n101))
  (let ((let444 (ff.mul let443 let439)))
  (let ((let445 (= let444 let442)))
  (let ((let446 (ff.add let404 let322)))
  (let ((let447 (ff.mul let306 let446)))
  (let ((let448 (= let447 let149)))
  (let ((let449 (ff.add let210 let421 let131)))
  (let ((let450 (ff.mul let405 let160)))
  (let ((let451 (ff.mul let450 let449)))
  (let ((let452 (= let451 let420)))
  (let ((let453 (ff.mul let415 let143)))
  (let ((let454 (ff.add let453 let280 let131)))
  (let ((let455 mul_n26))
  (let ((let456 (ff.mul let455 let143)))
  (let ((let457 (ff.add let456 let131)))
  (let ((let458 (ff.mul let457 let454)))
  (let ((let459 (= let458 let416)))
  (let ((let460 (ff.mul let356 let143)))
  (let ((let461 (ff.add let460 let131)))
  (let ((let462 (ff.add let295 let131)))
  (let ((let463 (ff.mul let462 let461)))
  (let ((let464 (= let463 let279)))
  (let ((let465 (ff.mul let294 let143)))
  (let ((let466 (ff.add let465 let401 let370 let400 let177 let362 let191 let146)))
  (let ((let467 (ff.mul let356 let466)))
  (let ((let468 (= let467 let134)))
  (let ((let469 is_zero_inv_n95))
  (let ((let470 (ff.mul let469 let466)))
  (let ((let471 (= let470 let461)))
  (let ((let472 (ff.add let401 let131)))
  (let ((let473 mul_n93))
  (let ((let474 (ff.mul let473 let472)))
  (let ((let475 (= let474 let370)))
  (let ((let476 mul_n72))
  (let ((let477 (ff.mul let476 let143)))
  (let ((let478 (ff.add let477 let230 let229 let231 let169)))
  (let ((let479 (ff.mul let248 let478)))
  (let ((let480 (= let479 let473)))
  (let ((let481 is_zero_n82))
  (let ((let482 is_zero_n91))
  (let ((let483 (ff.mul let482 let481)))
  (let ((let484 (= let483 let415)))
  (let ((let485 (as ff7 FF0)))
  (let ((let486 mul_n56))
  (let ((let487 (ff.mul let321 let143)))
  (let ((let488 (ff.mul let363 let143)))
  (let ((let489 (ff.mul let209 let160)))
  (let ((let490 (ff.mul let289 let143)))
  (let ((let491 (as ff52435875175126190479447740508185965837690552500527637822603658699938581184510 FF0)))
  (let ((let492 (ff.mul let159 let491)))
  (let ((let493 (ff.mul let212 let146)))
  (let ((let494 (ff.add let214 let493 let365 let381 let492 let271 let291 let490 let192 let489 let488 let296 let295 let178 let487 let437 let486 let364 let235 let485)))
  (let ((let495 (ff.mul let482 let494)))
  (let ((let496 (= let495 let134)))
  (let ((let497 (ff.mul let482 let143)))
  (let ((let498 (ff.add let497 let131)))
  (let ((let499 is_zero_inv_n90))
  (let ((let500 (ff.mul let499 let494)))
  (let ((let501 (= let500 let498)))
  (let ((let502 (ff.add let291 let323)))
  (let ((let503 mul_n36))
  (let ((let504 (ff.mul let503 let143)))
  (let ((let505 (ff.add let504 let131)))
  (let ((let506 (ff.mul let505 let502)))
  (let ((let507 (= let506 let289)))
  (let ((let508 is_zero_n48))
  (let ((let509 (ff.add let465 let131)))
  (let ((let510 (ff.mul let509 let508)))
  (let ((let511 (= let510 let321)))
  (let ((let512 (ff.add let323 let131)))
  (let ((let513 (ff.mul let436 let512)))
  (let ((let514 (= let513 let294)))
  (let ((let515 (ff.add let341 let344 let211 let365 let343 let169)))
  (let ((let516 (ff.mul let436 let515)))
  (let ((let517 (= let516 let363)))
  (let ((let518 (ff.add let366 let131)))
  (let ((let519 (ff.mul let518 let508)))
  (let ((let520 (= let519 let436)))
  (let ((let521 mul_n83))
  (let ((let522 (ff.mul let521 let238)))
  (let ((let523 (= let522 let365)))
  (let ((let524 (ff.mul let394 let143)))
  (let ((let525 (ff.add let524 let131)))
  (let ((let526 (ff.mul let525 let151)))
  (let ((let527 (= let526 let521)))
  (let ((let528 (ff.add let162 let362 let341 let191 let188 let344 let211 let349 let177 let343 let245 let359 let364 let235 let340)))
  (let ((let529 (ff.mul let481 let528)))
  (let ((let530 (= let529 let134)))
  (let ((let531 (ff.mul let481 let143)))
  (let ((let532 (ff.add let531 let131)))
  (let ((let533 is_zero_inv_n81))
  (let ((let534 (ff.mul let533 let528)))
  (let ((let535 (= let534 let532)))
  (let ((let536 (ff.add let147 let161)))
  (let ((let537 (ff.add let349 let162)))
  (let ((let538 (ff.mul let537 let536)))
  (let ((let539 (= let538 let187)))
  (let ((let540 (ff.add let401 let400 let131)))
  (let ((let541 mul_n40))
  (let ((let542 (ff.mul let541 let540)))
  (let ((let543 (= let542 let359)))
  (let ((let544 (ff.add let216 let215 let213 let211 let210 let401 let131)))
  (let ((let545 (ff.mul let224 let544)))
  (let ((let546 (= let545 let161)))
  (let ((let547 (ff.add let214 let209 let212 let143)))
  (let ((let548 (ff.mul let211 let169)))
  (let ((let549 (ff.add let548 let160)))
  (let ((let550 (ff.mul let549 let547)))
  (let ((let551 (= let550 let216)))
  (let ((let552 (ff.add let362 let210 let421 let131)))
  (let ((let553 (ff.mul let218 let552)))
  (let ((let554 (= let553 let141)))
  (let ((let555 mul_n74))
  (let ((let556 (ff.mul let555 let276)))
  (let ((let557 (= let556 let159)))
  (let ((let558 mul_n31))
  (let ((let559 (ff.mul let293 let143)))
  (let ((let560 (ff.add let559 let558 let131)))
  (let ((let561 (ff.mul let183 let169)))
  (let ((let562 (ff.mul let151 let169)))
  (let ((let563 (ff.add let476 let562 let561 let171 let146)))
  (let ((let564 (ff.mul let563 let560)))
  (let ((let565 (= let564 let555)))
  (let ((let566 (ff.mul let478 let218)))
  (let ((let567 (= let566 let235)))
  (let ((let568 (ff.add let170 let151 let183 let143)))
  (let ((let569 (ff.mul let232 let568)))
  (let ((let570 (= let569 let476)))
  (let ((let571 (ff.add let152 let131)))
  (let ((let572 (ff.add let171 let160)))
  (let ((let573 (ff.mul let572 let571)))
  (let ((let574 (= let573 let183)))
  (let ((let575 (ff.add let191 let177)))
  (let ((let576 (ff.mul let342 let169)))
  (let ((let577 (ff.mul let211 let160)))
  (let ((let578 (ff.mul let344 let160)))
  (let ((let579 (ff.mul let341 let160)))
  (let ((let580 (ff.add let579 let578 let577 let576 let169)))
  (let ((let581 (ff.mul let580 let575)))
  (let ((let582 (= let581 let339)))
  (let ((let583 (ff.mul let342 let160)))
  (let ((let584 (ff.mul let344 let169)))
  (let ((let585 (ff.add let584 let583 let160)))
  (let ((let586 (ff.mul let585 let462)))
  (let ((let587 (= let586 let341)))
  (let ((let588 (as ff10 FF0)))
  (let ((let589 mul_n12))
  (let ((let590 (ff.mul let589 let143)))
  (let ((let591 is_zero_n18))
  (let ((let592 (ff.mul let591 let143)))
  (let ((let593 (ff.mul let374 let160)))
  (let ((let594 (ff.mul let344 let491)))
  (let ((let595 mul_n66))
  (let ((let596 (ff.mul let595 let433)))
  (let ((let597 mul_n37))
  (let ((let598 (ff.mul let597 let169)))
  (let ((let599 (ff.mul let373 let160)))
  (let ((let600 (ff.add let559 let599 let541 let598 let596 let558 let272 let276 let189 let594 let270 let342 let593 let592 let208 let590 let588)))
  (let ((let601 (ff.mul let211 let600)))
  (let ((let602 (= let601 let134)))
  (let ((let603 is_zero_inv_n67))
  (let ((let604 (ff.mul let603 let600)))
  (let ((let605 (= let604 let462)))
  (let ((let606 (ff.mul let405 let224)))
  (let ((let607 (= let606 let595)))
  (let ((let608 (ff.mul let486 let143)))
  (let ((let609 mul_n55))
  (let ((let610 (ff.add let609 let213 let266 let608 let246 let144 let320 let244 let146)))
  (let ((let611 (ff.mul let417 let610)))
  (let ((let612 (= let611 let134)))
  (let ((let613 (ff.add let418 let131)))
  (let ((let614 is_zero_inv_n64))
  (let ((let615 (ff.mul let614 let610)))
  (let ((let616 (= let615 let613)))
  (let ((let617 mul_n62))
  (let ((let618 (ff.mul let617 let402)))
  (let ((let619 (= let618 let319)))
  (let ((let620 (ff.mul let486 let248)))
  (let ((let621 (= let620 let617)))
  (let ((let622 (ff.mul let575 let291)))
  (let ((let623 (= let622 let248)))
  (let ((let624 (ff.add let438 let435 let131)))
  (let ((let625 mul_n11))
  (let ((let626 (ff.add let344 let625)))
  (let ((let627 (ff.mul let626 let624)))
  (let ((let628 (= let627 let291)))
  (let ((let629 (ff.add let209 let422)))
  (let ((let630 (ff.mul let218 let629)))
  (let ((let631 (= let630 let402)))
  (let ((let632 mul_n50))
  (let ((let633 (ff.mul let632 let143)))
  (let ((let634 (ff.add let633 let131)))
  (let ((let635 (ff.add let155 let131)))
  (let ((let636 (ff.mul let635 let634)))
  (let ((let637 (= let636 let218)))
  (let ((let638 (ff.mul let505 let151)))
  (let ((let639 (= let638 let154)))
  (let ((let640 (ff.add let245 let243 let212 let143)))
  (let ((let641 (ff.mul let640 let322)))
  (let ((let642 (= let641 let486)))
  (let ((let643 (ff.add let267 let131)))
  (let ((let644 (ff.mul let212 let160)))
  (let ((let645 (ff.mul let243 let160)))
  (let ((let646 (ff.mul let245 let160)))
  (let ((let647 (ff.add let646 let645 let644 let169)))
  (let ((let648 (ff.mul let647 let643)))
  (let ((let649 (= let648 let609)))
  (let ((let650 (ff.add let246 let131)))
  (let ((let651 (ff.mul let212 let169)))
  (let ((let652 (ff.add let651 let160)))
  (let ((let653 (ff.mul let652 let650)))
  (let ((let654 (= let653 let243)))
  (let ((let655 (ff.add let438 let131)))
  (let ((let656 (ff.mul let336 let655)))
  (let ((let657 (= let656 let245)))
  (let ((let658 (ff.mul let597 let143)))
  (let ((let659 (ff.add let189 let271 let632 let208 let508 let658 let334 let146)))
  (let ((let660 (ff.mul let266 let659)))
  (let ((let661 (= let660 let134)))
  (let ((let662 is_zero_inv_n51))
  (let ((let663 (ff.mul let662 let659)))
  (let ((let664 (= let663 let643)))
  (let ((let665 (ff.add let559 let131)))
  (let ((let666 (ff.mul let405 let665)))
  (let ((let667 (= let666 let632)))
  (let ((let668 (ff.add let344 let343)))
  (let ((let669 (ff.add let190 let142)))
  (let ((let670 (ff.mul let669 let668)))
  (let ((let671 (= let670 let405)))
  (let ((let672 (ff.add let230 let215 let322 let213 let351 let404 let342 let178 let192 let210 let433)))
  (let ((let673 (ff.mul let508 let672)))
  (let ((let674 (= let673 let134)))
  (let ((let675 (ff.mul let508 let143)))
  (let ((let676 (ff.add let675 let131)))
  (let ((let677 is_zero_inv_n47))
  (let ((let678 (ff.mul let677 let672)))
  (let ((let679 (= let678 let676)))
  (let ((let680 (ff.add let456 let322)))
  (let ((let681 (ff.add let210 let131)))
  (let ((let682 (ff.mul let681 let680)))
  (let ((let683 (= let682 let403)))
  (let ((let684 (ff.mul let170 let503)))
  (let ((let685 (= let684 let151)))
  (let ((let686 (ff.mul let541 let143)))
  (let ((let687 (ff.add let686 let131)))
  (let ((let688 (ff.mul let375 let687)))
  (let ((let689 (= let688 let170)))
  (let ((let690 (ff.add let438 let351 let342 let131)))
  (let ((let691 (ff.add let208 let131)))
  (let ((let692 (ff.mul let691 let690)))
  (let ((let693 (= let692 let373)))
  (let ((let694 mul_n41))
  (let ((let695 (ff.mul let694 let624)))
  (let ((let696 (= let695 let333)))
  (let ((let697 (ff.mul let687 let271)))
  (let ((let698 (= let697 let694)))
  (let ((let699 (ff.mul let512 let457)))
  (let ((let700 (= let699 let541)))
  (let ((let701 (ff.add let192 let178 let131)))
  (let ((let702 (ff.mul let589 let701)))
  (let ((let703 (= let702 let322)))
  (let ((let704 (ff.add let438 let210 let421 let131)))
  (let ((let705 (ff.add let658 let131)))
  (let ((let706 (ff.mul let705 let704)))
  (let ((let707 (= let706 let434)))
  (let ((let708 (ff.mul let457 let503)))
  (let ((let709 (= let708 let597)))
  (let ((let710 (ff.mul let382 let142)))
  (let ((let711 (= let710 let503)))
  (let ((let712 (ff.add let374 let209 let143)))
  (let ((let713 (ff.mul let240 let712)))
  (let ((let714 (= let713 let421)))
  (let ((let715 (ff.mul let591 let169)))
  (let ((let716 mul_n22))
  (let ((let717 (ff.mul let716 let143)))
  (let ((let718 (ff.add let717 let715 let160)))
  (let ((let719 (ff.mul let718 let472)))
  (let ((let720 (= let719 let238)))
  (let ((let721 (ff.mul let558 let143)))
  (let ((let722 (ff.add let215 let351 let213 let293 let178 let455 let342 let721 let192 let210 let142 let433)))
  (let ((let723 (ff.mul let147 let722)))
  (let ((let724 (= let723 let134)))
  (let ((let725 is_zero_inv_n32))
  (let ((let726 (ff.mul let725 let722)))
  (let ((let727 (= let726 let472)))
  (let ((let728 (ff.add let272 let293 let270 let269 let143)))
  (let ((let729 (ff.mul let669 let728)))
  (let ((let730 (= let729 let558)))
  (let ((let731 (ff.mul let271 let160)))
  (let ((let732 (ff.mul let731 let382)))
  (let ((let733 (= let732 let270)))
  (let ((let734 (ff.mul let652 let681)))
  (let ((let735 (= let734 let214)))
  (let ((let736 (ff.add let344 let178 let343)))
  (let ((let737 (ff.mul let668 let736)))
  (let ((let738 (= let737 let191)))
  (let ((let739 (ff.mul let591 let160)))
  (let ((let740 (ff.add let344 let716 let739 let169)))
  (let ((let741 (ff.add let716 let739 let143)))
  (let ((let742 (ff.mul let741 let740)))
  (let ((let743 (= let742 let342)))
  (let ((let744 (ff.mul let344 let142)))
  (let ((let745 (= let744 let455)))
  (let ((let746 (ff.mul let293 let395)))
  (let ((let747 (= let746 let209)))
  (let ((let748 (ff.add let213 let131)))
  (let ((let749 (ff.mul let741 let748)))
  (let ((let750 (= let749 let374)))
  (let ((let751 (ff.mul let344 let718)))
  (let ((let752 (= let751 let212)))
  (let ((let753 (ff.add let592 let131)))
  (let ((let754 (ff.add let715 let160)))
  (let ((let755 (ff.mul let754 let753)))
  (let ((let756 (= let755 let716)))
  (let ((let757 (ff.add let590 let131)))
  (let ((let758 (ff.mul let757 let293)))
  (let ((let759 (= let758 let144)))
  (let ((let760 (ff.add let277 let131)))
  (let ((let761 (ff.mul let344 let760)))
  (let ((let762 (= let761 let293)))
  (let ((let763 (ff.mul let626 let753)))
  (let ((let764 (= let763 let276)))
  (let ((let765 (ff.mul let589 let169)))
  (let ((let766 a_n2))
  (let ((let767 (ff.add let392 let260 let381 let731 let524 let766 let765 let318)))
  (let ((let768 (ff.mul let591 let767)))
  (let ((let769 (= let768 let134)))
  (let ((let770 is_zero_inv_n17))
  (let ((let771 (ff.mul let770 let767)))
  (let ((let772 (= let771 let753)))
  (let ((let773 (ff.add let351 let142)))
  (let ((let774 (ff.add let351 let131)))
  (let ((let775 (ff.mul let774 let773)))
  (let ((let776 (= let775 let189)))
  (let ((let777 (ff.mul let269 let395)))
  (let ((let778 (= let777 let142)))
  (let ((let779 (ff.mul let625 let160)))
  (let ((let780 (ff.mul let344 let146)))
  (let ((let781 (ff.add let780 let392 let177 let779 let271 let524 let146)))
  (let ((let782 (ff.mul let269 let781)))
  (let ((let783 (= let782 let134)))
  (let ((let784 is_zero_inv_n13))
  (let ((let785 (ff.mul let784 let781)))
  (let ((let786 (= let785 let382)))
  (let ((let787 (ff.mul let626 let525)))
  (let ((let788 (= let787 let589)))
  (let ((let789 (ff.add let177 let351)))
  (let ((let790 (ff.add let524 let392 let177)))
  (let ((let791 (ff.mul let790 let789)))
  (let ((let792 (= let791 let625)))
  (let ((let793 (ff.mul let177 let169)))
  (let ((let794 (ff.mul let766 let143)))
  (let ((let795 (as ff52435875175126190479447740508185965837690552500527637822603658699938581184509 FF0)))
  (let ((let796 (ff.mul let394 let795)))
  (let ((let797 (ff.mul let271 let146)))
  (let ((let798 (ff.add let797 let796 let794 let793 let485)))
  (let ((let799 (ff.mul let344 let798)))
  (let ((let800 (= let799 let134)))
  (let ((let801 is_zero_inv_n9))
  (let ((let802 (ff.mul let801 let798)))
  (let ((let803 (= let802 let774)))
  (let ((let804 (ff.mul let177 let525)))
  (let ((let805 (= let804 let271)))
  (let ((let806 (ff.add let793 let160)))
  (let ((let807 (ff.mul let806 let394)))
  (let ((let808 (= let807 let392)))
  (let ((let809 (ff.mul let766 let491)))
  (let ((let810 (ff.add let809 let318)))
  (let ((let811 (ff.mul let394 let810)))
  (let ((let812 (= let811 let134)))
  (let ((let813 is_zero_inv_n4))
  (let ((let814 (ff.mul let813 let810)))
  (let ((let815 (= let814 let525)))
  (let ((let816 (and let815 let812 let808 let805 let803 let800 let792 let788 let786 let783 let778 let776 let772 let769 let764 let762 let759 let756 let752 let750 let747 let745 let743 let738 let735 let733 let730 let727 let724 let720 let714 let711 let709 let707 let703 let700 let698 let696 let693 let689 let685 let683 let679 let674 let671 let667 let664 let661 let657 let654 let649 let642 let639 let637 let631 let628 let623 let621 let619 let616 let612 let607 let605 let602 let587 let582 let574 let570 let567 let565 let557 let554 let551 let546 let543 let539 let535 let530 let527 let523 let520 let517 let514 let511 let507 let501 let496 let484 let480 let475 let471 let468 let464 let459 let452 let448 let445 let441 let432 let429 let425 let414 let409 let399 let397 let390 let387 let385 let380 let377 let369 let361 let358 let355 let348 let338 let331 let328 let317 let309 let304 let299 let288 let284 let275 let265 let256 let252 let242 let234 let228 let222 let207 let204)))
  (let ((let817 (ite let0 let131 let134)))
  (let ((let818 (= let766 let817)))
  (let ((let819 (ite let1 let131 let134)))
  (let ((let820 (= let177 let819)))
  (let ((let821 (and let820 let818)))
  (let ((let822 (and let821 let816)))
  (let ((let823 (=> let822 let137)))
  (let ((let824 (not let823)))
  let824
)))))))))))))))))))))))))))))))))))))))))))))))))))))))))))))))))))))))))))))))))))))))))))))))))))))))))))))))))))))))))))))))))))))))))))))))))))))))))))))))))))))))))))))))))))))))))))))))))))))))))))))))))))))))))))))))))))))))))))))))))))))))))))))))))))))))))))))))))))))))))))))))))))))))))))))))))))))))))))))))))))))))))))))))))))))))))))))))))))))))))))))))))))))))))))))))))))))))))))))))))))))))))))))))))))))))))))))))))))))))))))))))))))))))))))))))))))))))))))))))))))))))))))))))))))))))))))))))))))))))))))))))))))))))))))))))))))))))))))))))))))))))))))))))))))))))))))))))))))))))))))))))))))))))))))))))))))))))))))))))))))))))))))))))))))))))))))))))))))))))))))))))))))))))))))))))))))))))))))))))))))))))))))))))))))))))))))))))))))))))))))))))))))))))))))))))))))))))))))))))))))))))))))))))))))))))))
)
(check-sat)
